CST08
Position Depot: Random
Horizon for Depot: Small
Position of customers: Cluster
Distribution of the demand: Large
Width of time windows: Tight
Distribution of the service: Small

VEHICLE 
NUMBER 	 CAPACITY 
 7 	 	 386 
 
CUSTOMER
CUST NO. 	 XCOORD.  	 YCOORD. 	 DEMAND 	 READY TIME 	 DUE DATE 	 SERVICE TIME 
 0 	 	 81 	 	 935 	 	 0 	 	 0 	 	 2490 	 	 0 
  1 	 	 840 	 	 758 	 	 57 	 	 1500 	 	 1578 	 	 81 
  2 	 	 329 	 	 728 	 	 38 	 	 2045 	 	 2210 	 	 52 
  3 	 	 808 	 	 500 	 	 37 	 	 1284 	 	 1382 	 	 88 
  4 	 	 772 	 	 789 	 	 99 	 	 1099 	 	 1216 	 	 77 
  5 	 	 776 	 	 580 	 	 33 	 	 767 	 	 890 	 	 59 
  6 	 	 713 	 	 746 	 	 79 	 	 2119 	 	 2287 	 	 77 
  7 	 	 300 	 	 674 	 	 22 	 	 1710 	 	 1804 	 	 72 
  8 	 	 855 	 	 442 	 	 62 	 	 2348 	 	 2408 	 	 87 
  9 	 	 835 	 	 817 	 	 62 	 	 734 	 	 839 	 	 68 
  10 	 	 804 	 	 513 	 	 80 	 	 767 	 	 920 	 	 60 
  11 	 	 331 	 	 718 	 	 93 	 	 1387 	 	 1584 	 	 60 
  12 	 	 770 	 	 784 	 	 88 	 	 617 	 	 775 	 	 93 
  13 	 	 904 	 	 570 	 	 5 	 	 2301 	 	 2444 	 	 86 
  14 	 	 773 	 	 872 	 	 94 	 	 629 	 	 764 	 	 62 
  15 	 	 766 	 	 785 	 	 70 	 	 2380 	 	 2490 	 	 97 
  16 	 	 720 	 	 683 	 	 52 	 	 617 	 	 755 	 	 59 
  17 	 	 715 	 	 714 	 	 10 	 	 612 	 	 738 	 	 69 
  18 	 	 300 	 	 634 	 	 76 	 	 1928 	 	 2045 	 	 86 
  19 	 	 826 	 	 544 	 	 29 	 	 775 	 	 925 	 	 80 
  20 	 	 308 	 	 557 	 	 49 	 	 2217 	 	 2331 	 	 60 
  21 	 	 870 	 	 730 	 	 66 	 	 2298 	 	 2463 	 	 91 
  22 	 	 734 	 	 347 	 	 1 	 	 1448 	 	 1630 	 	 99 
  23 	 	 280 	 	 627 	 	 43 	 	 1051 	 	 1148 	 	 67 
  24 	 	 360 	 	 600 	 	 62 	 	 1987 	 	 2122 	 	 66 
  25 	 	 716 	 	 457 	 	 86 	 	 687 	 	 874 	 	 77 
  26 	 	 692 	 	 750 	 	 74 	 	 549 	 	 702 	 	 100 
  27 	 	 562 	 	 845 	 	 7 	 	 1884 	 	 2084 	 	 77 
  28 	 	 852 	 	 607 	 	 6 	 	 856 	 	 921 	 	 100 
  29 	 	 326 	 	 740 	 	 3 	 	 2065 	 	 2244 	 	 62 
  30 	 	 817 	 	 833 	 	 72 	 	 2039 	 	 2196 	 	 99 
  31 	 	 873 	 	 548 	 	 37 	 	 1731 	 	 1821 	 	 67 
  32 	 	 838 	 	 598 	 	 97 	 	 714 	 	 911 	 	 68 
  33 	 	 797 	 	 760 	 	 36 	 	 775 	 	 901 	 	 84 
  34 	 	 869 	 	 463 	 	 73 	 	 1227 	 	 1399 	 	 83 
  35 	 	 913 	 	 422 	 	 99 	 	 991 	 	 1075 	 	 55 
  36 	 	 822 	 	 695 	 	 96 	 	 830 	 	 940 	 	 78 
  37 	 	 347 	 	 728 	 	 6 	 	 1818 	 	 2012 	 	 71 
  38 	 	 744 	 	 783 	 	 14 	 	 613 	 	 748 	 	 82 
  39 	 	 884 	 	 733 	 	 61 	 	 1484 	 	 1556 	 	 97 
  40 	 	 859 	 	 742 	 	 48 	 	 768 	 	 881 	 	 81 
  41 	 	 795 	 	 498 	 	 38 	 	 753 	 	 920 	 	 78 
  42 	 	 812 	 	 675 	 	 75 	 	 1670 	 	 1790 	 	 62 
  43 	 	 872 	 	 454 	 	 81 	 	 925 	 	 1018 	 	 75 
  44 	 	 723 	 	 768 	 	 100 	 	 1747 	 	 1906 	 	 56 
  45 	 	 306 	 	 686 	 	 21 	 	 2164 	 	 2313 	 	 71 
  46 	 	 334 	 	 734 	 	 51 	 	 1566 	 	 1664 	 	 50 
  47 	 	 816 	 	 481 	 	 15 	 	 2197 	 	 2308 	 	 94 
  48 	 	 790 	 	 703 	 	 80 	 	 1658 	 	 1814 	 	 72 
  49 	 	 465 	 	 668 	 	 75 	 	 2001 	 	 2103 	 	 82 
  50 	 	 826 	 	 538 	 	 97 	 	 1974 	 	 2157 	 	 99 
 